SPARKNaCl/why3-z3/sparknacl-utils.adb_282_25_range_check2_1.smt2
;; produced by z3_gnatprove.drv ;;
(set-info :smt-lib-version 2.5)
(set-info :source |VC generated by SPARK 2014|)
(set-info :category industrial)
(set-info :status unknown)
;;; generated by SMT-LIB2 driver
;;; SMT-LIB2 driver: bit-vectors, common part
;;; SMT-LIB2: integer arithmetic
(define-fun __cdiv ((x Int) (y Int)) Int (ite (>= x 0) (div x y) (- (div (- x) y))))
(define-fun __cmod ((x Int) (y Int)) Int (ite (>= x 0) (mod x y) (- (mod (- x) y))))
(declare-datatypes ()
  ((int__ref (int__refqtmk (int__content Int)))))

(declare-sort gf32_any_limb 0)

;; "gf32_any_limb'int"
(declare-fun gf32_any_limbqtint (gf32_any_limb) Int)

;; "gf32_any_limb'axiom"
(assert
  (forall ((i gf32_any_limb))
    (and
      (<= (- 65536) (gf32_any_limbqtint i))
      (<= (gf32_any_limbqtint i) 132051011))))

;; "in_range"
(define-fun in_range ((x Int)) Bool
  (and (<= (- 65536) x) (<= x 132051011)))

;; "to_rep"
(define-fun to_rep ((x gf32_any_limb)) Int
  (gf32_any_limbqtint x))

;; "of_rep"
(declare-fun of_rep (Int) gf32_any_limb)

;; "inversion_axiom"
(assert
  (forall ((x gf32_any_limb))
    (! (= (of_rep (to_rep x)) x) :pattern ((to_rep x)) )))

;; "range_axiom"
(assert
  (forall ((x gf32_any_limb))
    (! (in_range (to_rep x)) :pattern ((to_rep x)) )))

;; "coerce_axiom"
(assert
  (forall ((x Int))
    (! (=> (in_range x) (= (to_rep (of_rep x)) x)) :pattern ((to_rep
                                                               (of_rep x))) )))

(declare-sort map1 0)

(declare-datatypes ()
  ((map__ref (map__refqtmk (map__content map1)))))

;; "has_bounds"
(declare-fun has_bounds (map1
  Int
  Int) Bool)

;; "get"
(declare-fun get (map1
  Int) gf32_any_limb)

(declare-const t map1)

(declare-const gf32_0 map1)

;; "power"
(declare-fun power (Int
  Int) Int)

;; "Power_0"
(assert (forall ((x Int)) (= (power x 0) 1)))

;; "Power_s"
(assert
  (forall ((x Int) (n Int))
    (=> (<= 0 n) (= (power x (+ n 1)) (* x (power x n))))))

;; "Power_s_alt"
(assert
  (forall ((x Int) (n Int))
    (=> (< 0 n) (= (power x n) (* x (power x (- n 1)))))))

;; "Power_1"
(assert (forall ((x Int)) (= (power x 1) x)))

;; "Power_sum"
(assert
  (forall ((x Int) (n Int) (m Int))
    (=>
      (<= 0 n)
      (=> (<= 0 m) (= (power x (+ n m)) (* (power x n) (power x m)))))))

;; "Power_mult"
(assert
  (forall ((x Int) (n Int) (m Int))
    (=> (<= 0 n) (=> (<= 0 m) (= (power x (* n m)) (power (power x n) m))))))

;; "Power_comm1"
(assert
  (forall ((x Int) (y Int))
    (=>
      (= (* x y) (* y x))
      (forall ((n Int))
        (=> (<= 0 n) (= (* (power x n) y) (* y (power x n))))))))

;; "Power_comm2"
(assert
  (forall ((x Int) (y Int))
    (=>
      (= (* x y) (* y x))
      (forall ((n Int))
        (=> (<= 0 n) (= (power (* x y) n) (* (power x n) (power y n))))))))

;; "Power_non_neg"
(assert
  (forall ((x Int) (y Int)) (=> (and (<= 0 x) (<= 0 y)) (<= 0 (power x y)))))

;; "Power_pos"
(assert
  (forall ((x Int) (y Int)) (=> (and (< 0 x) (<= 0 y)) (< 0 (power x y)))))

;; "Power_monotonic"
(assert
  (forall ((x Int) (n Int) (m Int))
    (=> (and (< 0 x) (and (<= 0 n) (<= n m))) (<= (power x n) (power x m)))))

;; "in_range"
(define-fun in_range1 ((x Int)) Bool
  (and (<= 0 x) (<= x 65535)))

;; "dynamic_invariant"
(define-fun dynamic_invariant ((temp___expr_547 map1) (temp___is_init_543 Bool) (temp___skip_constant_544 Bool) (temp___do_toplevel_545 Bool) (temp___do_typ_inv_546 Bool)) Bool
  (and
    (=>
      (= temp___is_init_543 true)
      (=>
        (= temp___do_toplevel_545 true)
        (forall ((i Int))
          (=>
            (and (<= 0 i) (<= i 15))
            (in_range1 (to_rep (get temp___expr_547 i)))))))
    (has_bounds temp___expr_547 0 15)))

;; "in_range"
(define-fun in_range2 ((x Int)) Bool
  (and (<= (- 65536) x) (<= x 65535)))

;; "dynamic_invariant"
(define-fun dynamic_invariant1 ((temp___expr_598 map1) (temp___is_init_594 Bool) (temp___skip_constant_595 Bool) (temp___do_toplevel_596 Bool) (temp___do_typ_inv_597 Bool)) Bool
  (and
    (=>
      (= temp___is_init_594 true)
      (=>
        (= temp___do_toplevel_596 true)
        (and
          (in_range2 (to_rep (get temp___expr_598 15)))
          (forall ((k Int))
            (=>
              (and (<= 0 k) (<= k 14))
              (in_range1 (to_rep (get temp___expr_598 k))))))))
    (has_bounds temp___expr_598 0 15)))

;; "in_range"
(define-fun in_range3 ((x Int)) Bool
  (and (<= 0 x) (<= x 1)))

;; "sparknacl__gf32_0__aggregate_def"
(declare-fun sparknacl__gf32_0__aggregate_def (Int) map1)

;; "gf32_0__def_axiom"
(assert
  (= gf32_0 (let ((temp___211 (sparknacl__gf32_0__aggregate_def 0)))
              (let ((temp___212 temp___211)) temp___212))))

(declare-const rliteral gf32_any_limb)

;; "rliteral_axiom"
(assert (= (gf32_any_limbqtint rliteral) 0))

;; "def_axiom"
(assert
  (forall ((temp___207 Int))
    (let ((temp___208 (sparknacl__gf32_0__aggregate_def temp___207)))
      (and
        (has_bounds temp___208 0 15)
        (forall ((temp___209 Int))
          (! (=>
               (and (<= 0 temp___209) (<= temp___209 15))
               (= (get temp___208 temp___209) rliteral)) :pattern ((get
                                                                    temp___208
                                                                    temp___209)) ))))))

(declare-const result__ map1)

(declare-const carry Int)

(declare-const r map1)

;; "r'unused"
(define-fun rqtunused () map__ref
  (map__refqtmk r))

;; "carry'unused"
(define-fun carryqtunused () int__ref
  (int__refqtmk carry))

;; "Assume"
(assert (dynamic_invariant gf32_0 true false true true))

(declare-const temp___1142 map1)

;; "H"
(assert (has_bounds temp___1142 0 15))

;; "H"
(assert
  (forall ((temp___210 Int))
    (! (=>
         (and (<= 0 temp___210) (<= temp___210 15))
         (= (get temp___1142 temp___210) rliteral)) :pattern ((get
                                                                temp___1142
                                                                temp___210)) )))

;; "H"
(assert (= temp___1142 (sparknacl__gf32_0__aggregate_def 0)))

;; "sparknacl__gf32_0__aggregate_def'result'unused"
(define-fun sparknacl__gf32_0__aggregate_defqtresultqtunused () map1
  temp___1142)

;; "Assume"
(assert (= temp___1142 gf32_0))

;; "Assume"
(assert (dynamic_invariant1 t true false true true))

;; "Assume"
(assert (dynamic_invariant1 result__ false false true true))

;; "Assume"
(assert (<= (- 32768) (to_rep (get t 15))))

;; "Assume"
(assert true)

;; "Assume"
(assert (in_range3 carry))

;; "Assume"
(assert true)

;; "Assume"
(assert (has_bounds r 0 15))

(declare-const r1 map1)

;; "r'unused"
(define-fun rqtunused1 () map__ref
  (map__refqtmk r1))

;; "H"
(assert (= r1 gf32_0))

;; "o"
(define-fun o () gf32_any_limb
  (get t 0))

;; "get'result'unused"
(define-fun getqtresultqtunused () gf32_any_limb
  o)

(declare-const o1 Int)

;; "Ensures"
(assert (= (to_rep o) o1))

;; "to_rep'result'unused"
(define-fun to_repqtresultqtunused () Int
  o1)

;; "o"
(define-fun o2 () Int
  (- o1 65517))

;; "infix -'result'unused"
(define-fun infix_mnqtresultqtunused () Int
  o2)

;; Goal "def'vc"
;; File "sparknacl-utils.adb", line 260, characters 0-0
(assert
  (not (<= o2 132051011)))

(check-sat)
